(set-logic QF_LRA)
(declare-fun T1 () Real )
(declare-fun T2 () Real )
(declare-fun T3 () Real )
(declare-fun T4 () Real )
(declare-fun T5 () Real )
(declare-fun T6 () Real )
(declare-fun T7 () Real )
(declare-fun T8 () Real )
(declare-fun Z () Real )
(assert ( and 
(or ( <= ( + T1 35 ) T2 ) ( <= ( + T2 46 ) T1 ) )
(or ( <= ( + T1 117 )  ( + T2 46 ) ) ( <= ( + T2 122 )( + T1 35 ) ) )
(or ( <= ( + T1 213 )  ( + T2 122 ) ) ( <= ( + T2 193 )( + T1 117 ) ) )
(or ( <= ( + T1 292 )  ( + T2 193 ) ) ( <= ( + T2 199 )( + T1 213 ) ) )
(or ( <= ( + T1 293 )  ( + T2 199 ) ) ( <= ( + T2 223 )( + T1 292 ) ) )
(or ( <= ( + T1 386 )  ( + T2 223 ) ) ( <= ( + T2 310 )( + T1 293 ) ) )
(or ( <= ( + T1 436 )  ( + T2 310 ) ) ( <= ( + T2 341 )( + T1 386 ) ) )
(or ( <= ( + T1 475 )  ( + T2 341 ) ) ( <= ( + T2 385 )( + T1 436 ) ) )
(or ( <= ( + T1 529 )  ( + T2 385 ) ) ( <= ( + T2 469 )( + T1 475 ) ) )
(or ( <= ( + T1 579 )  ( + T2 469 ) ) ( <= ( + T2 566 )( + T1 529 ) ) )
(or ( <= ( + T1 35 ) T3 ) ( <= ( + T3 34 ) T1 ) )
(or ( <= ( + T1 117 )  ( + T3 34 ) ) ( <= ( + T3 59 )( + T1 35 ) ) )
(or ( <= ( + T1 213 )  ( + T3 59 ) ) ( <= ( + T3 113 )( + T1 117 ) ) )
(or ( <= ( + T1 292 )  ( + T3 113 ) ) ( <= ( + T3 154 )( + T1 213 ) ) )
(or ( <= ( + T1 293 )  ( + T3 154 ) ) ( <= ( + T3 183 )( + T1 292 ) ) )
(or ( <= ( + T1 386 )  ( + T3 183 ) ) ( <= ( + T3 261 )( + T1 293 ) ) )
(or ( <= ( + T1 436 )  ( + T3 261 ) ) ( <= ( + T3 304 )( + T1 386 ) ) )
(or ( <= ( + T1 475 )  ( + T3 304 ) ) ( <= ( + T3 353 )( + T1 436 ) ) )
(or ( <= ( + T1 529 )  ( + T3 353 ) ) ( <= ( + T3 413 )( + T1 475 ) ) )
(or ( <= ( + T1 579 )  ( + T3 413 ) ) ( <= ( + T3 424 )( + T1 529 ) ) )
(or ( <= ( + T1 35 ) T4 ) ( <= ( + T4 76 ) T1 ) )
(or ( <= ( + T1 117 )  ( + T4 76 ) ) ( <= ( + T4 122 )( + T1 35 ) ) )
(or ( <= ( + T1 213 )  ( + T4 122 ) ) ( <= ( + T4 166 )( + T1 117 ) ) )
(or ( <= ( + T1 292 )  ( + T4 166 ) ) ( <= ( + T4 237 )( + T1 213 ) ) )
(or ( <= ( + T1 293 )  ( + T4 237 ) ) ( <= ( + T4 261 )( + T1 292 ) ) )
(or ( <= ( + T1 386 )  ( + T4 261 ) ) ( <= ( + T4 305 )( + T1 293 ) ) )
(or ( <= ( + T1 436 )  ( + T4 305 ) ) ( <= ( + T4 369 )( + T1 386 ) ) )
(or ( <= ( + T1 475 )  ( + T4 369 ) ) ( <= ( + T4 395 )( + T1 436 ) ) )
(or ( <= ( + T1 529 )  ( + T4 395 ) ) ( <= ( + T4 478 )( + T1 475 ) ) )
(or ( <= ( + T1 579 )  ( + T4 478 ) ) ( <= ( + T4 547 )( + T1 529 ) ) )
(or ( <= ( + T1 35 ) T5 ) ( <= ( + T5 27 ) T1 ) )
(or ( <= ( + T1 117 )  ( + T5 27 ) ) ( <= ( + T5 55 )( + T1 35 ) ) )
(or ( <= ( + T1 213 )  ( + T5 55 ) ) ( <= ( + T5 99 )( + T1 117 ) ) )
(or ( <= ( + T1 292 )  ( + T5 99 ) ) ( <= ( + T5 196 )( + T1 213 ) ) )
(or ( <= ( + T1 293 )  ( + T5 196 ) ) ( <= ( + T5 281 )( + T1 292 ) ) )
(or ( <= ( + T1 386 )  ( + T5 281 ) ) ( <= ( + T5 300 )( + T1 293 ) ) )
(or ( <= ( + T1 436 )  ( + T5 300 ) ) ( <= ( + T5 335 )( + T1 386 ) ) )
(or ( <= ( + T1 475 )  ( + T5 335 ) ) ( <= ( + T5 350 )( + T1 436 ) ) )
(or ( <= ( + T1 529 )  ( + T5 350 ) ) ( <= ( + T5 364 )( + T1 475 ) ) )
(or ( <= ( + T1 579 )  ( + T5 364 ) ) ( <= ( + T5 382 )( + T1 529 ) ) )
(or ( <= ( + T1 35 ) T6 ) ( <= ( + T6 11 ) T1 ) )
(or ( <= ( + T1 117 )  ( + T6 11 ) ) ( <= ( + T6 110 )( + T1 35 ) ) )
(or ( <= ( + T1 213 )  ( + T6 110 ) ) ( <= ( + T6 204 )( + T1 117 ) ) )
(or ( <= ( + T1 292 )  ( + T6 204 ) ) ( <= ( + T6 269 )( + T1 213 ) ) )
(or ( <= ( + T1 293 )  ( + T6 269 ) ) ( <= ( + T6 361 )( + T1 292 ) ) )
(or ( <= ( + T1 386 )  ( + T6 361 ) ) ( <= ( + T6 383 )( + T1 293 ) ) )
(or ( <= ( + T1 436 )  ( + T6 383 ) ) ( <= ( + T6 477 )( + T1 386 ) ) )
(or ( <= ( + T1 475 )  ( + T6 477 ) ) ( <= ( + T6 511 )( + T1 436 ) ) )
(or ( <= ( + T1 529 )  ( + T6 511 ) ) ( <= ( + T6 533 )( + T1 475 ) ) )
(or ( <= ( + T1 579 )  ( + T6 533 ) ) ( <= ( + T6 586 )( + T1 529 ) ) )
(or ( <= ( + T1 35 ) T7 ) ( <= ( + T7 45 ) T1 ) )
(or ( <= ( + T1 117 )  ( + T7 45 ) ) ( <= ( + T7 142 )( + T1 35 ) ) )
(or ( <= ( + T1 213 )  ( + T7 142 ) ) ( <= ( + T7 241 )( + T1 117 ) ) )
(or ( <= ( + T1 292 )  ( + T7 241 ) ) ( <= ( + T7 329 )( + T1 213 ) ) )
(or ( <= ( + T1 293 )  ( + T7 329 ) ) ( <= ( + T7 349 )( + T1 292 ) ) )
(or ( <= ( + T1 386 )  ( + T7 349 ) ) ( <= ( + T7 423 )( + T1 293 ) ) )
(or ( <= ( + T1 436 )  ( + T7 423 ) ) ( <= ( + T7 455 )( + T1 386 ) ) )
(or ( <= ( + T1 475 )  ( + T7 455 ) ) ( <= ( + T7 490 )( + T1 436 ) ) )
(or ( <= ( + T1 529 )  ( + T7 490 ) ) ( <= ( + T7 541 )( + T1 475 ) ) )
(or ( <= ( + T1 579 )  ( + T7 541 ) ) ( <= ( + T7 607 )( + T1 529 ) ) )
(or ( <= ( + T1 35 ) T8 ) ( <= ( + T8 3 ) T1 ) )
(or ( <= ( + T1 117 )  ( + T8 3 ) ) ( <= ( + T8 80 )( + T1 35 ) ) )
(or ( <= ( + T1 213 )  ( + T8 80 ) ) ( <= ( + T8 125 )( + T1 117 ) ) )
(or ( <= ( + T1 292 )  ( + T8 125 ) ) ( <= ( + T8 223 )( + T1 213 ) ) )
(or ( <= ( + T1 293 )  ( + T8 223 ) ) ( <= ( + T8 296 )( + T1 292 ) ) )
(or ( <= ( + T1 386 )  ( + T8 296 ) ) ( <= ( + T8 325 )( + T1 293 ) ) )
(or ( <= ( + T1 436 )  ( + T8 325 ) ) ( <= ( + T8 393 )( + T1 386 ) ) )
(or ( <= ( + T1 475 )  ( + T8 393 ) ) ( <= ( + T8 453 )( + T1 436 ) ) )
(or ( <= ( + T1 529 )  ( + T8 453 ) ) ( <= ( + T8 497 )( + T1 475 ) ) )
(or ( <= ( + T1 579 )  ( + T8 497 ) ) ( <= ( + T8 578 )( + T1 529 ) ) )
(or ( <= ( + T2 46 ) T3 ) ( <= ( + T3 34 ) T2 ) )
(or ( <= ( + T2 122 )  ( + T3 34 ) ) ( <= ( + T3 59 )( + T2 46 ) ) )
(or ( <= ( + T2 193 )  ( + T3 59 ) ) ( <= ( + T3 113 )( + T2 122 ) ) )
(or ( <= ( + T2 199 )  ( + T3 113 ) ) ( <= ( + T3 154 )( + T2 193 ) ) )
(or ( <= ( + T2 223 )  ( + T3 154 ) ) ( <= ( + T3 183 )( + T2 199 ) ) )
(or ( <= ( + T2 310 )  ( + T3 183 ) ) ( <= ( + T3 261 )( + T2 223 ) ) )
(or ( <= ( + T2 341 )  ( + T3 261 ) ) ( <= ( + T3 304 )( + T2 310 ) ) )
(or ( <= ( + T2 385 )  ( + T3 304 ) ) ( <= ( + T3 353 )( + T2 341 ) ) )
(or ( <= ( + T2 469 )  ( + T3 353 ) ) ( <= ( + T3 413 )( + T2 385 ) ) )
(or ( <= ( + T2 566 )  ( + T3 413 ) ) ( <= ( + T3 424 )( + T2 469 ) ) )
(or ( <= ( + T2 46 ) T4 ) ( <= ( + T4 76 ) T2 ) )
(or ( <= ( + T2 122 )  ( + T4 76 ) ) ( <= ( + T4 122 )( + T2 46 ) ) )
(or ( <= ( + T2 193 )  ( + T4 122 ) ) ( <= ( + T4 166 )( + T2 122 ) ) )
(or ( <= ( + T2 199 )  ( + T4 166 ) ) ( <= ( + T4 237 )( + T2 193 ) ) )
(or ( <= ( + T2 223 )  ( + T4 237 ) ) ( <= ( + T4 261 )( + T2 199 ) ) )
(or ( <= ( + T2 310 )  ( + T4 261 ) ) ( <= ( + T4 305 )( + T2 223 ) ) )
(or ( <= ( + T2 341 )  ( + T4 305 ) ) ( <= ( + T4 369 )( + T2 310 ) ) )
(or ( <= ( + T2 385 )  ( + T4 369 ) ) ( <= ( + T4 395 )( + T2 341 ) ) )
(or ( <= ( + T2 469 )  ( + T4 395 ) ) ( <= ( + T4 478 )( + T2 385 ) ) )
(or ( <= ( + T2 566 )  ( + T4 478 ) ) ( <= ( + T4 547 )( + T2 469 ) ) )
(or ( <= ( + T2 46 ) T5 ) ( <= ( + T5 27 ) T2 ) )
(or ( <= ( + T2 122 )  ( + T5 27 ) ) ( <= ( + T5 55 )( + T2 46 ) ) )
(or ( <= ( + T2 193 )  ( + T5 55 ) ) ( <= ( + T5 99 )( + T2 122 ) ) )
(or ( <= ( + T2 199 )  ( + T5 99 ) ) ( <= ( + T5 196 )( + T2 193 ) ) )
(or ( <= ( + T2 223 )  ( + T5 196 ) ) ( <= ( + T5 281 )( + T2 199 ) ) )
(or ( <= ( + T2 310 )  ( + T5 281 ) ) ( <= ( + T5 300 )( + T2 223 ) ) )
(or ( <= ( + T2 341 )  ( + T5 300 ) ) ( <= ( + T5 335 )( + T2 310 ) ) )
(or ( <= ( + T2 385 )  ( + T5 335 ) ) ( <= ( + T5 350 )( + T2 341 ) ) )
(or ( <= ( + T2 469 )  ( + T5 350 ) ) ( <= ( + T5 364 )( + T2 385 ) ) )
(or ( <= ( + T2 566 )  ( + T5 364 ) ) ( <= ( + T5 382 )( + T2 469 ) ) )
(or ( <= ( + T2 46 ) T6 ) ( <= ( + T6 11 ) T2 ) )
(or ( <= ( + T2 122 )  ( + T6 11 ) ) ( <= ( + T6 110 )( + T2 46 ) ) )
(or ( <= ( + T2 193 )  ( + T6 110 ) ) ( <= ( + T6 204 )( + T2 122 ) ) )
(or ( <= ( + T2 199 )  ( + T6 204 ) ) ( <= ( + T6 269 )( + T2 193 ) ) )
(or ( <= ( + T2 223 )  ( + T6 269 ) ) ( <= ( + T6 361 )( + T2 199 ) ) )
(or ( <= ( + T2 310 )  ( + T6 361 ) ) ( <= ( + T6 383 )( + T2 223 ) ) )
(or ( <= ( + T2 341 )  ( + T6 383 ) ) ( <= ( + T6 477 )( + T2 310 ) ) )
(or ( <= ( + T2 385 )  ( + T6 477 ) ) ( <= ( + T6 511 )( + T2 341 ) ) )
(or ( <= ( + T2 469 )  ( + T6 511 ) ) ( <= ( + T6 533 )( + T2 385 ) ) )
(or ( <= ( + T2 566 )  ( + T6 533 ) ) ( <= ( + T6 586 )( + T2 469 ) ) )
(or ( <= ( + T2 46 ) T7 ) ( <= ( + T7 45 ) T2 ) )
(or ( <= ( + T2 122 )  ( + T7 45 ) ) ( <= ( + T7 142 )( + T2 46 ) ) )
(or ( <= ( + T2 193 )  ( + T7 142 ) ) ( <= ( + T7 241 )( + T2 122 ) ) )
(or ( <= ( + T2 199 )  ( + T7 241 ) ) ( <= ( + T7 329 )( + T2 193 ) ) )
(or ( <= ( + T2 223 )  ( + T7 329 ) ) ( <= ( + T7 349 )( + T2 199 ) ) )
(or ( <= ( + T2 310 )  ( + T7 349 ) ) ( <= ( + T7 423 )( + T2 223 ) ) )
(or ( <= ( + T2 341 )  ( + T7 423 ) ) ( <= ( + T7 455 )( + T2 310 ) ) )
(or ( <= ( + T2 385 )  ( + T7 455 ) ) ( <= ( + T7 490 )( + T2 341 ) ) )
(or ( <= ( + T2 469 )  ( + T7 490 ) ) ( <= ( + T7 541 )( + T2 385 ) ) )
(or ( <= ( + T2 566 )  ( + T7 541 ) ) ( <= ( + T7 607 )( + T2 469 ) ) )
(or ( <= ( + T2 46 ) T8 ) ( <= ( + T8 3 ) T2 ) )
(or ( <= ( + T2 122 )  ( + T8 3 ) ) ( <= ( + T8 80 )( + T2 46 ) ) )
(or ( <= ( + T2 193 )  ( + T8 80 ) ) ( <= ( + T8 125 )( + T2 122 ) ) )
(or ( <= ( + T2 199 )  ( + T8 125 ) ) ( <= ( + T8 223 )( + T2 193 ) ) )
(or ( <= ( + T2 223 )  ( + T8 223 ) ) ( <= ( + T8 296 )( + T2 199 ) ) )
(or ( <= ( + T2 310 )  ( + T8 296 ) ) ( <= ( + T8 325 )( + T2 223 ) ) )
(or ( <= ( + T2 341 )  ( + T8 325 ) ) ( <= ( + T8 393 )( + T2 310 ) ) )
(or ( <= ( + T2 385 )  ( + T8 393 ) ) ( <= ( + T8 453 )( + T2 341 ) ) )
(or ( <= ( + T2 469 )  ( + T8 453 ) ) ( <= ( + T8 497 )( + T2 385 ) ) )
(or ( <= ( + T2 566 )  ( + T8 497 ) ) ( <= ( + T8 578 )( + T2 469 ) ) )
(or ( <= ( + T3 34 ) T4 ) ( <= ( + T4 76 ) T3 ) )
(or ( <= ( + T3 59 )  ( + T4 76 ) ) ( <= ( + T4 122 )( + T3 34 ) ) )
(or ( <= ( + T3 113 )  ( + T4 122 ) ) ( <= ( + T4 166 )( + T3 59 ) ) )
(or ( <= ( + T3 154 )  ( + T4 166 ) ) ( <= ( + T4 237 )( + T3 113 ) ) )
(or ( <= ( + T3 183 )  ( + T4 237 ) ) ( <= ( + T4 261 )( + T3 154 ) ) )
(or ( <= ( + T3 261 )  ( + T4 261 ) ) ( <= ( + T4 305 )( + T3 183 ) ) )
(or ( <= ( + T3 304 )  ( + T4 305 ) ) ( <= ( + T4 369 )( + T3 261 ) ) )
(or ( <= ( + T3 353 )  ( + T4 369 ) ) ( <= ( + T4 395 )( + T3 304 ) ) )
(or ( <= ( + T3 413 )  ( + T4 395 ) ) ( <= ( + T4 478 )( + T3 353 ) ) )
(or ( <= ( + T3 424 )  ( + T4 478 ) ) ( <= ( + T4 547 )( + T3 413 ) ) )
(or ( <= ( + T3 34 ) T5 ) ( <= ( + T5 27 ) T3 ) )
(or ( <= ( + T3 59 )  ( + T5 27 ) ) ( <= ( + T5 55 )( + T3 34 ) ) )
(or ( <= ( + T3 113 )  ( + T5 55 ) ) ( <= ( + T5 99 )( + T3 59 ) ) )
(or ( <= ( + T3 154 )  ( + T5 99 ) ) ( <= ( + T5 196 )( + T3 113 ) ) )
(or ( <= ( + T3 183 )  ( + T5 196 ) ) ( <= ( + T5 281 )( + T3 154 ) ) )
(or ( <= ( + T3 261 )  ( + T5 281 ) ) ( <= ( + T5 300 )( + T3 183 ) ) )
(or ( <= ( + T3 304 )  ( + T5 300 ) ) ( <= ( + T5 335 )( + T3 261 ) ) )
(or ( <= ( + T3 353 )  ( + T5 335 ) ) ( <= ( + T5 350 )( + T3 304 ) ) )
(or ( <= ( + T3 413 )  ( + T5 350 ) ) ( <= ( + T5 364 )( + T3 353 ) ) )
(or ( <= ( + T3 424 )  ( + T5 364 ) ) ( <= ( + T5 382 )( + T3 413 ) ) )
(or ( <= ( + T3 34 ) T6 ) ( <= ( + T6 11 ) T3 ) )
(or ( <= ( + T3 59 )  ( + T6 11 ) ) ( <= ( + T6 110 )( + T3 34 ) ) )
(or ( <= ( + T3 113 )  ( + T6 110 ) ) ( <= ( + T6 204 )( + T3 59 ) ) )
(or ( <= ( + T3 154 )  ( + T6 204 ) ) ( <= ( + T6 269 )( + T3 113 ) ) )
(or ( <= ( + T3 183 )  ( + T6 269 ) ) ( <= ( + T6 361 )( + T3 154 ) ) )
(or ( <= ( + T3 261 )  ( + T6 361 ) ) ( <= ( + T6 383 )( + T3 183 ) ) )
(or ( <= ( + T3 304 )  ( + T6 383 ) ) ( <= ( + T6 477 )( + T3 261 ) ) )
(or ( <= ( + T3 353 )  ( + T6 477 ) ) ( <= ( + T6 511 )( + T3 304 ) ) )
(or ( <= ( + T3 413 )  ( + T6 511 ) ) ( <= ( + T6 533 )( + T3 353 ) ) )
(or ( <= ( + T3 424 )  ( + T6 533 ) ) ( <= ( + T6 586 )( + T3 413 ) ) )
(or ( <= ( + T3 34 ) T7 ) ( <= ( + T7 45 ) T3 ) )
(or ( <= ( + T3 59 )  ( + T7 45 ) ) ( <= ( + T7 142 )( + T3 34 ) ) )
(or ( <= ( + T3 113 )  ( + T7 142 ) ) ( <= ( + T7 241 )( + T3 59 ) ) )
(or ( <= ( + T3 154 )  ( + T7 241 ) ) ( <= ( + T7 329 )( + T3 113 ) ) )
(or ( <= ( + T3 183 )  ( + T7 329 ) ) ( <= ( + T7 349 )( + T3 154 ) ) )
(or ( <= ( + T3 261 )  ( + T7 349 ) ) ( <= ( + T7 423 )( + T3 183 ) ) )
(or ( <= ( + T3 304 )  ( + T7 423 ) ) ( <= ( + T7 455 )( + T3 261 ) ) )
(or ( <= ( + T3 353 )  ( + T7 455 ) ) ( <= ( + T7 490 )( + T3 304 ) ) )
(or ( <= ( + T3 413 )  ( + T7 490 ) ) ( <= ( + T7 541 )( + T3 353 ) ) )
(or ( <= ( + T3 424 )  ( + T7 541 ) ) ( <= ( + T7 607 )( + T3 413 ) ) )
(or ( <= ( + T3 34 ) T8 ) ( <= ( + T8 3 ) T3 ) )
(or ( <= ( + T3 59 )  ( + T8 3 ) ) ( <= ( + T8 80 )( + T3 34 ) ) )
(or ( <= ( + T3 113 )  ( + T8 80 ) ) ( <= ( + T8 125 )( + T3 59 ) ) )
(or ( <= ( + T3 154 )  ( + T8 125 ) ) ( <= ( + T8 223 )( + T3 113 ) ) )
(or ( <= ( + T3 183 )  ( + T8 223 ) ) ( <= ( + T8 296 )( + T3 154 ) ) )
(or ( <= ( + T3 261 )  ( + T8 296 ) ) ( <= ( + T8 325 )( + T3 183 ) ) )
(or ( <= ( + T3 304 )  ( + T8 325 ) ) ( <= ( + T8 393 )( + T3 261 ) ) )
(or ( <= ( + T3 353 )  ( + T8 393 ) ) ( <= ( + T8 453 )( + T3 304 ) ) )
(or ( <= ( + T3 413 )  ( + T8 453 ) ) ( <= ( + T8 497 )( + T3 353 ) ) )
(or ( <= ( + T3 424 )  ( + T8 497 ) ) ( <= ( + T8 578 )( + T3 413 ) ) )
(or ( <= ( + T4 76 ) T5 ) ( <= ( + T5 27 ) T4 ) )
(or ( <= ( + T4 122 )  ( + T5 27 ) ) ( <= ( + T5 55 )( + T4 76 ) ) )
(or ( <= ( + T4 166 )  ( + T5 55 ) ) ( <= ( + T5 99 )( + T4 122 ) ) )
(or ( <= ( + T4 237 )  ( + T5 99 ) ) ( <= ( + T5 196 )( + T4 166 ) ) )
(or ( <= ( + T4 261 )  ( + T5 196 ) ) ( <= ( + T5 281 )( + T4 237 ) ) )
(or ( <= ( + T4 305 )  ( + T5 281 ) ) ( <= ( + T5 300 )( + T4 261 ) ) )
(or ( <= ( + T4 369 )  ( + T5 300 ) ) ( <= ( + T5 335 )( + T4 305 ) ) )
(or ( <= ( + T4 395 )  ( + T5 335 ) ) ( <= ( + T5 350 )( + T4 369 ) ) )
(or ( <= ( + T4 478 )  ( + T5 350 ) ) ( <= ( + T5 364 )( + T4 395 ) ) )
(or ( <= ( + T4 547 )  ( + T5 364 ) ) ( <= ( + T5 382 )( + T4 478 ) ) )
(or ( <= ( + T4 76 ) T6 ) ( <= ( + T6 11 ) T4 ) )
(or ( <= ( + T4 122 )  ( + T6 11 ) ) ( <= ( + T6 110 )( + T4 76 ) ) )
(or ( <= ( + T4 166 )  ( + T6 110 ) ) ( <= ( + T6 204 )( + T4 122 ) ) )
(or ( <= ( + T4 237 )  ( + T6 204 ) ) ( <= ( + T6 269 )( + T4 166 ) ) )
(or ( <= ( + T4 261 )  ( + T6 269 ) ) ( <= ( + T6 361 )( + T4 237 ) ) )
(or ( <= ( + T4 305 )  ( + T6 361 ) ) ( <= ( + T6 383 )( + T4 261 ) ) )
(or ( <= ( + T4 369 )  ( + T6 383 ) ) ( <= ( + T6 477 )( + T4 305 ) ) )
(or ( <= ( + T4 395 )  ( + T6 477 ) ) ( <= ( + T6 511 )( + T4 369 ) ) )
(or ( <= ( + T4 478 )  ( + T6 511 ) ) ( <= ( + T6 533 )( + T4 395 ) ) )
(or ( <= ( + T4 547 )  ( + T6 533 ) ) ( <= ( + T6 586 )( + T4 478 ) ) )
(or ( <= ( + T4 76 ) T7 ) ( <= ( + T7 45 ) T4 ) )
(or ( <= ( + T4 122 )  ( + T7 45 ) ) ( <= ( + T7 142 )( + T4 76 ) ) )
(or ( <= ( + T4 166 )  ( + T7 142 ) ) ( <= ( + T7 241 )( + T4 122 ) ) )
(or ( <= ( + T4 237 )  ( + T7 241 ) ) ( <= ( + T7 329 )( + T4 166 ) ) )
(or ( <= ( + T4 261 )  ( + T7 329 ) ) ( <= ( + T7 349 )( + T4 237 ) ) )
(or ( <= ( + T4 305 )  ( + T7 349 ) ) ( <= ( + T7 423 )( + T4 261 ) ) )
(or ( <= ( + T4 369 )  ( + T7 423 ) ) ( <= ( + T7 455 )( + T4 305 ) ) )
(or ( <= ( + T4 395 )  ( + T7 455 ) ) ( <= ( + T7 490 )( + T4 369 ) ) )
(or ( <= ( + T4 478 )  ( + T7 490 ) ) ( <= ( + T7 541 )( + T4 395 ) ) )
(or ( <= ( + T4 547 )  ( + T7 541 ) ) ( <= ( + T7 607 )( + T4 478 ) ) )
(or ( <= ( + T4 76 ) T8 ) ( <= ( + T8 3 ) T4 ) )
(or ( <= ( + T4 122 )  ( + T8 3 ) ) ( <= ( + T8 80 )( + T4 76 ) ) )
(or ( <= ( + T4 166 )  ( + T8 80 ) ) ( <= ( + T8 125 )( + T4 122 ) ) )
(or ( <= ( + T4 237 )  ( + T8 125 ) ) ( <= ( + T8 223 )( + T4 166 ) ) )
(or ( <= ( + T4 261 )  ( + T8 223 ) ) ( <= ( + T8 296 )( + T4 237 ) ) )
(or ( <= ( + T4 305 )  ( + T8 296 ) ) ( <= ( + T8 325 )( + T4 261 ) ) )
(or ( <= ( + T4 369 )  ( + T8 325 ) ) ( <= ( + T8 393 )( + T4 305 ) ) )
(or ( <= ( + T4 395 )  ( + T8 393 ) ) ( <= ( + T8 453 )( + T4 369 ) ) )
(or ( <= ( + T4 478 )  ( + T8 453 ) ) ( <= ( + T8 497 )( + T4 395 ) ) )
(or ( <= ( + T4 547 )  ( + T8 497 ) ) ( <= ( + T8 578 )( + T4 478 ) ) )
(or ( <= ( + T5 27 ) T6 ) ( <= ( + T6 11 ) T5 ) )
(or ( <= ( + T5 55 )  ( + T6 11 ) ) ( <= ( + T6 110 )( + T5 27 ) ) )
(or ( <= ( + T5 99 )  ( + T6 110 ) ) ( <= ( + T6 204 )( + T5 55 ) ) )
(or ( <= ( + T5 196 )  ( + T6 204 ) ) ( <= ( + T6 269 )( + T5 99 ) ) )
(or ( <= ( + T5 281 )  ( + T6 269 ) ) ( <= ( + T6 361 )( + T5 196 ) ) )
(or ( <= ( + T5 300 )  ( + T6 361 ) ) ( <= ( + T6 383 )( + T5 281 ) ) )
(or ( <= ( + T5 335 )  ( + T6 383 ) ) ( <= ( + T6 477 )( + T5 300 ) ) )
(or ( <= ( + T5 350 )  ( + T6 477 ) ) ( <= ( + T6 511 )( + T5 335 ) ) )
(or ( <= ( + T5 364 )  ( + T6 511 ) ) ( <= ( + T6 533 )( + T5 350 ) ) )
(or ( <= ( + T5 382 )  ( + T6 533 ) ) ( <= ( + T6 586 )( + T5 364 ) ) )
(or ( <= ( + T5 27 ) T7 ) ( <= ( + T7 45 ) T5 ) )
(or ( <= ( + T5 55 )  ( + T7 45 ) ) ( <= ( + T7 142 )( + T5 27 ) ) )
(or ( <= ( + T5 99 )  ( + T7 142 ) ) ( <= ( + T7 241 )( + T5 55 ) ) )
(or ( <= ( + T5 196 )  ( + T7 241 ) ) ( <= ( + T7 329 )( + T5 99 ) ) )
(or ( <= ( + T5 281 )  ( + T7 329 ) ) ( <= ( + T7 349 )( + T5 196 ) ) )
(or ( <= ( + T5 300 )  ( + T7 349 ) ) ( <= ( + T7 423 )( + T5 281 ) ) )
(or ( <= ( + T5 335 )  ( + T7 423 ) ) ( <= ( + T7 455 )( + T5 300 ) ) )
(or ( <= ( + T5 350 )  ( + T7 455 ) ) ( <= ( + T7 490 )( + T5 335 ) ) )
(or ( <= ( + T5 364 )  ( + T7 490 ) ) ( <= ( + T7 541 )( + T5 350 ) ) )
(or ( <= ( + T5 382 )  ( + T7 541 ) ) ( <= ( + T7 607 )( + T5 364 ) ) )
(or ( <= ( + T5 27 ) T8 ) ( <= ( + T8 3 ) T5 ) )
(or ( <= ( + T5 55 )  ( + T8 3 ) ) ( <= ( + T8 80 )( + T5 27 ) ) )
(or ( <= ( + T5 99 )  ( + T8 80 ) ) ( <= ( + T8 125 )( + T5 55 ) ) )
(or ( <= ( + T5 196 )  ( + T8 125 ) ) ( <= ( + T8 223 )( + T5 99 ) ) )
(or ( <= ( + T5 281 )  ( + T8 223 ) ) ( <= ( + T8 296 )( + T5 196 ) ) )
(or ( <= ( + T5 300 )  ( + T8 296 ) ) ( <= ( + T8 325 )( + T5 281 ) ) )
(or ( <= ( + T5 335 )  ( + T8 325 ) ) ( <= ( + T8 393 )( + T5 300 ) ) )
(or ( <= ( + T5 350 )  ( + T8 393 ) ) ( <= ( + T8 453 )( + T5 335 ) ) )
(or ( <= ( + T5 364 )  ( + T8 453 ) ) ( <= ( + T8 497 )( + T5 350 ) ) )
(or ( <= ( + T5 382 )  ( + T8 497 ) ) ( <= ( + T8 578 )( + T5 364 ) ) )
(or ( <= ( + T6 11 ) T7 ) ( <= ( + T7 45 ) T6 ) )
(or ( <= ( + T6 110 )  ( + T7 45 ) ) ( <= ( + T7 142 )( + T6 11 ) ) )
(or ( <= ( + T6 204 )  ( + T7 142 ) ) ( <= ( + T7 241 )( + T6 110 ) ) )
(or ( <= ( + T6 269 )  ( + T7 241 ) ) ( <= ( + T7 329 )( + T6 204 ) ) )
(or ( <= ( + T6 361 )  ( + T7 329 ) ) ( <= ( + T7 349 )( + T6 269 ) ) )
(or ( <= ( + T6 383 )  ( + T7 349 ) ) ( <= ( + T7 423 )( + T6 361 ) ) )
(or ( <= ( + T6 477 )  ( + T7 423 ) ) ( <= ( + T7 455 )( + T6 383 ) ) )
(or ( <= ( + T6 511 )  ( + T7 455 ) ) ( <= ( + T7 490 )( + T6 477 ) ) )
(or ( <= ( + T6 533 )  ( + T7 490 ) ) ( <= ( + T7 541 )( + T6 511 ) ) )
(or ( <= ( + T6 586 )  ( + T7 541 ) ) ( <= ( + T7 607 )( + T6 533 ) ) )
(or ( <= ( + T6 11 ) T8 ) ( <= ( + T8 3 ) T6 ) )
(or ( <= ( + T6 110 )  ( + T8 3 ) ) ( <= ( + T8 80 )( + T6 11 ) ) )
(or ( <= ( + T6 204 )  ( + T8 80 ) ) ( <= ( + T8 125 )( + T6 110 ) ) )
(or ( <= ( + T6 269 )  ( + T8 125 ) ) ( <= ( + T8 223 )( + T6 204 ) ) )
(or ( <= ( + T6 361 )  ( + T8 223 ) ) ( <= ( + T8 296 )( + T6 269 ) ) )
(or ( <= ( + T6 383 )  ( + T8 296 ) ) ( <= ( + T8 325 )( + T6 361 ) ) )
(or ( <= ( + T6 477 )  ( + T8 325 ) ) ( <= ( + T8 393 )( + T6 383 ) ) )
(or ( <= ( + T6 511 )  ( + T8 393 ) ) ( <= ( + T8 453 )( + T6 477 ) ) )
(or ( <= ( + T6 533 )  ( + T8 453 ) ) ( <= ( + T8 497 )( + T6 511 ) ) )
(or ( <= ( + T6 586 )  ( + T8 497 ) ) ( <= ( + T8 578 )( + T6 533 ) ) )
(or ( <= ( + T7 45 ) T8 ) ( <= ( + T8 3 ) T7 ) )
(or ( <= ( + T7 142 )  ( + T8 3 ) ) ( <= ( + T8 80 )( + T7 45 ) ) )
(or ( <= ( + T7 241 )  ( + T8 80 ) ) ( <= ( + T8 125 )( + T7 142 ) ) )
(or ( <= ( + T7 329 )  ( + T8 125 ) ) ( <= ( + T8 223 )( + T7 241 ) ) )
(or ( <= ( + T7 349 )  ( + T8 223 ) ) ( <= ( + T8 296 )( + T7 329 ) ) )
(or ( <= ( + T7 423 )  ( + T8 296 ) ) ( <= ( + T8 325 )( + T7 349 ) ) )
(or ( <= ( + T7 455 )  ( + T8 325 ) ) ( <= ( + T8 393 )( + T7 423 ) ) )
(or ( <= ( + T7 490 )  ( + T8 393 ) ) ( <= ( + T8 453 )( + T7 455 ) ) )
(or ( <= ( + T7 541 )  ( + T8 453 ) ) ( <= ( + T8 497 )( + T7 490 ) ) )
(or ( <= ( + T7 607 )  ( + T8 497 ) ) ( <= ( + T8 578 )( + T7 541 ) ) )
( <= ( + T1 579 ) Z)
( <= ( + T2 566 ) Z)
( <= ( + T3 424 ) Z)
( <= ( + T4 547 ) Z)
( <= ( + T5 382 ) Z)
( <= ( + T6 586 ) Z)
( <= ( + T7 607 ) Z)
( <= ( + T8 578 ) Z)
( >= T1 0 )
( >= T2 0 )
( >= T3 0 )
( >= T4 0 )
( >= T5 0 )
( >= T6 0 )
( >= T7 0 )
( >= T8 0 )
) )
(minimize Z)
(check-sat)